Base=4;
C=66;
start_setup=[|0,0,0,0,0,13,0,4,0,0,0,0,0,0,0,16
             |0,0,0,0,0,0,0,0,0,0,0,0,0,0,0,11
             |0,4,0,0,0,0,0,0,0,0,0,0,0,0,0,0
             |0,0,0,0,0,0,0,0,0,0,3,0,0,0,0,0
             |0,0,0,4,0,0,0,0,0,0,0,0,11,5,15,0
             |0,0,0,0,0,0,0,0,0,0,0,0,0,0,0,0
             |0,0,0,0,0,0,9,0,0,0,0,11,0,0,7,0
             |15,0,0,0,0,0,0,0,0,0,0,0,0,0,1,0
             |0,2,0,0,0,0,0,0,13,0,0,0,0,0,0,0
             |0,0,0,0,0,0,0,0,0,0,11,0,0,0,0,7
             |0,0,0,0,0,0,0,0,0,1,0,0,14,0,0,0
             |0,0,0,0,0,0,0,0,5,0,9,0,0,0,0,0
             |4,0,0,0,0,7,0,0,0,0,0,9,16,0,0,0
             |0,0,0,0,0,0,0,0,4,0,0,0,12,11,0,0
             |0,11,10,0,0,3,0,1,0,15,0,0,0,0,0,0
             |0,0,0,0,0,0,0,9,0,7,0,5,4,3,0,0
|];
target_sum=[72,15,9,2,2,18,21,6,14,46,103,9,1,4,59,26,6,14,46,5,64,77,44,21,22,22,23,31,36,18,21,14,11,30,55,12,53,28,24,25,31,41,68,10,15,32,75,37,49,10,100,11,10,57,7,49,21,80,97,9,29,74,31,3,69,52];
tile2cage=[
14,61,61,15,15,15,15,38,38,35,35,35,27,27,58,58
,14,61,61,1,30,30,15,19,38,35,35,60,20,27,58,58
,59,59,1,1,1,30,19,19,63,63,35,60,56,58,58,58
,59,59,59,1,1,32,7,19,63,57,56,56,56,58,6,6
,59,59,59,1,1,7,7,19,63,57,56,56,28,28,28,6
,59,59,22,22,22,22,9,8,54,40,40,46,53,12,37,37
,59,59,22,22,22,62,9,64,54,54,54,46,46,46,37,37
,65,65,36,22,22,62,62,62,54,24,54,26,26,26,37,37
,65,65,13,33,3,62,62,62,54,24,50,50,26,49,16,16
,65,65,65,45,45,11,11,11,11,5,52,49,49,49,16,39
,31,25,65,45,55,11,11,11,11,11,10,10,51,51,2,39
,31,25,48,48,48,42,11,11,11,11,10,10,51,51,2,39
,31,43,43,43,43,42,42,47,47,47,47,10,51,51,51,51
,29,43,66,43,43,21,42,47,47,47,4,41,51,23,23,23
,29,43,66,66,21,21,42,47,47,34,18,41,41,44,23,23
,29,43,66,66,21,21,21,21,34,34,17,41,41,44,23,23];
